letting n =  10
letting blocks =  [[1, 1], [1, 8], [1, 9], [2, 3], [2, 4], [2, 7], [2, 10], [3, 1], [3, 5], [3, 9], [4, 1], [4, 4], [4, 5], [4, 8], [5, 8], [6, 1], [6, 2], [6, 7], [6, 9], [7, 1], [7, 4], [7, 8], [8, 1], [8, 2], [8, 8], [8, 10], [9, 2], [9, 4], [9, 7], [9, 9], [10, 2], [10, 4], [10, 7], [10, 9]]
